\* Fertilizacion *\
Minimize
OBJ: 280 Avicompost + 1820 TripleNPK
Subject To
Fosforo: 0.0436 Avicompost + 0.18 TripleNPK >= 90
MinCompost: Avicompost >= 1500
Nitrogeno: 0.0147 Avicompost + 0.18 TripleNPK >= 150
Potasio: 0.0307 Avicompost + 0.18 TripleNPK >= 200
End
